Optimal - objective value 339.00000000
      0 C           338.999999999995                       0
      1 x_0_0       94.9999999999946                       0
      2 x_0_1                   190                       0
      3 x_0_2                   193                       0
      4 x_0_3                   198                       0
      5 x_0_4       289.999999999995                       0
      7 x_1_1                   143                       0
      8 x_1_2       327.999999999995                       0
      9 x_1_3       331.999999999995                       0
     10 x_1_4       336.999999999995                       0
     11 x_2_0       3.00000000000012                       0
     12 x_2_1       8.00000000000012                       0
     13 x_2_2       145.999999999995                       0
     14 x_2_3                   193                       0
     15 x_2_4       266.999999999995                       0
     16 x_3_0       95.9999999999945                       0
     17 x_3_1       144.999999999995                       0
     18 x_3_2                   198                       0
     19 x_3_3       326.999999999995                       0
     20 x_3_4       330.999999999995                       0
     21 x_4_0       192.999999999995                       0
     22 x_4_1       269.999999999995                       0
     23 x_4_2       272.999999999995                       0
     24 x_4_3       321.999999999995                       0
     25 x_4_4       333.999999999995                       0
     27 x_5_1                     3                       0
     28 x_5_2       92.0000000000001                       0
     29 x_5_3       95.0000000000001                       0
     30 x_5_4       96.0000000000001                       0
     32 x_6_1       144.999999999995                       0
     33 x_6_2       316.999999999995                       0
     34 x_6_3       319.999999999995                       0
     35 x_6_4       321.999999999995                       0
     36 x_7_0       44.9999999999946                       0
     37 x_7_1       89.9999999999946                       0
     38 x_7_2                   140                       0
     39 x_7_3       242.999999999995                       0
     40 x_7_4       289.999999999995                       0
     42 x_8_1                    45                       0
     43 x_8_2                    95                       0
     44 x_8_3                   140                       0
     45 x_8_4       192.999999999995                       0
     46 y_0_1_0                   1                       0
     47 y_0_1_1                   1                       0
     51 y_0_2_0                   1                       0
     54 y_0_2_3                   1                       0
     55 y_0_2_4                   1                       0
     56 y_0_3_0                   1                       0
     61 y_0_4_0                   1                       0
     66 y_0_5_0                   1                       0
     67 y_0_5_1                   1                       0
     68 y_0_5_2                   1                       0
     69 y_0_5_3                   1                       0
     70 y_0_5_4                   1                       0
     71 y_0_6_0                   1                       0
     74 y_0_6_3                   1                       0
     76 y_0_7_0                   1                    1138
     77 y_0_7_1                   1                       0
     78 y_0_7_2                   1                       0
     80 y_0_7_4                   1                       0
     81 y_0_8_0                   1                       0
     82 y_0_8_1                   1                       0
     84 y_0_8_3                   1                       0
     85 y_0_8_4                   1                       0
     88 y_1_2_2                   1                       0
     89 y_1_2_3                   1                       0
     90 y_1_2_4                   1                       0
     93 y_1_3_2                   1                       0
     94 y_1_3_3                   1                       0
     95 y_1_3_4                   1                       0
     98 y_1_4_2                   1                       0
     99 y_1_4_3                   1                       0
    100 y_1_4_4                   1                       0
    102 y_1_5_1                   1                       0
    103 y_1_5_2                   1                       0
    104 y_1_5_3                   1                       0
    105 y_1_5_4                   1                       0
    108 y_1_6_2                   1                       0
    109 y_1_6_3                   1                       0
    110 y_1_6_4                   1                       0
    112 y_1_7_1                   1                       0
    113 y_1_7_2                   1                       0
    114 y_1_7_3                   1                       0
    115 y_1_7_4                   1                       0
    117 y_1_8_1                   1                       0
    118 y_1_8_2                   1                       0
    119 y_1_8_3                   1                       0
    120 y_1_8_4                   1                       0
    121 y_2_3_0                   1                       0
    123 y_2_3_2                   1                       0
    131 y_2_5_0                   1                       0
    132 y_2_5_1                   1                       0
    133 y_2_5_2                   1                       0
    135 y_2_5_4                   1                       0
    136 y_2_6_0                   1                    1138
    139 y_2_6_3                   1                       0
    142 y_2_7_1                   1                       0
    143 y_2_7_2                   1                       0
    146 y_2_8_0                   1                       0
    147 y_2_8_1                   1                       0
    148 y_2_8_2                   1                       0
    152 y_3_4_1                   1                       0
    156 y_3_5_0                   1                    1138
    157 y_3_5_1                   1                       0
    158 y_3_5_2                   1                       0
    159 y_3_5_3                   1                       0
    160 y_3_5_4                   1                       0
    162 y_3_6_1                   1                       0
    164 y_3_6_3                   1                       0
    165 y_3_6_4                   1                       0
    167 y_3_7_1                   1                       0
    168 y_3_7_2                   1                       0
    170 y_3_7_4                   1                       0
    171 y_3_8_0                   1                       0
    172 y_3_8_1                   1                       0
    174 y_3_8_3                   1                       0
    175 y_3_8_4                   1                       0
    176 y_4_5_0                   1                       0
    177 y_4_5_1                   1                       0
    178 y_4_5_2                   1                       0
    179 y_4_5_3                   1                       0
    180 y_4_5_4                   1                       0
    181 y_4_6_0                   1                       0
    183 y_4_6_2                   1                       0
    184 y_4_6_3                   1                       0
    185 y_4_6_4                   1                       0
    187 y_4_7_1                   1                       0
    188 y_4_7_2                   1                       0
    190 y_4_7_4                   1                       0
    191 y_4_8_0                   1                       0
    192 y_4_8_1                   1                       0
    193 y_4_8_2                   1                       0
    194 y_4_8_3                   1                       0
    195 y_4_8_4                   1                       0
    199 y_5_6_3                   1                       0
    202 y_5_7_1                   1                       0
    206 y_5_8_0                   1                    1138
    207 y_5_8_1                   1                       0
    212 y_6_7_1                   1                       0
    213 y_6_7_2                   1                       0
    215 y_6_7_4                   1                       0
    216 y_6_8_0                   1                       0
    217 y_6_8_1                   1                       0
    218 y_6_8_2                   1                       0
    220 y_6_8_4                   1                       0
    221 y_7_8_0                   1                       0
    222 y_7_8_1                   1                       0
    224 y_7_8_3                   1                       0
    225 y_7_8_4                   1                       0
